nN = 7;
nR = 15;
nH = 1;

a = [[25, 25, 6, 23, 13, 14, 14, 5, 22, 19, 9, 6, 16, 24, 11], [16, 14, 22, 24, 5, 15, 20, 10, 13, 15, 9, 7, 7, 23, 14], [20, 25, 17, 17, 11, 22, 13, 25, 23, 7, 24, 23, 23, 9, 19], [5, 16, 24, 12, 21, 6, 23, 18, 10, 7, 12, 6, 19, 14, 23], [19, 22, 9, 15, 13, 7, 16, 8, 5, 18, 8, 14, 24, 18, 10], [18, 19, 18, 18, 20, 24, 22, 10, 19, 22, 17, 17, 22, 13, 7], [21, 13, 17, 22, 9, 5, 20, 11, 23, 16, 15, 22, 16, 21, 19]];
c = [[[0, 0, 0, 0, 0, 0, 0, 0, 0, 0, 0, 0, 0, 0, 0], [30, 40, 44, 32, 37, 36, 32, 30, 30, 35, 31, 36, 43, 32, 42], [37, 44, 42, 30, 36, 45, 48, 47, 36, 41, 45, 49, 38, 46, 31], [36, 43, 49, 36, 39, 48, 30, 48, 41, 47, 37, 45, 33, 30, 50], [40, 34, 36, 37, 46, 43, 40, 43, 50, 35, 44, 48, 46, 46, 30], [47, 44, 44, 32, 37, 34, 42, 39, 43, 37, 47, 43, 41, 38, 31], [47, 30, 40, 37, 50, 43, 37, 45, 50, 38, 38, 31, 49, 33, 50]], [[0, 0, 0, 0, 0, 0, 0, 0, 0, 0, 0, 0, 0, 0, 0], [0, 0, 0, 0, 0, 0, 0, 0, 0, 0, 0, 0, 0, 0, 0], [49, 44, 41, 35, 40, 32, 45, 45, 40, 31, 46, 31, 37, 32, 39], [30, 36, 44, 47, 33, 38, 35, 36, 44, 40, 42, 40, 32, 40, 34], [37, 46, 48, 49, 50, 43, 47, 44, 41, 45, 47, 38, 47, 47, 30], [38, 45, 37, 32, 35, 43, 48, 46, 47, 47, 43, 49, 38, 34, 42], [40, 44, 45, 33, 39, 35, 45, 36, 45, 44, 47, 35, 41, 37, 46]], [[0, 0, 0, 0, 0, 0, 0, 0, 0, 0, 0, 0, 0, 0, 0], [0, 0, 0, 0, 0, 0, 0, 0, 0, 0, 0, 0, 0, 0, 0], [0, 0, 0, 0, 0, 0, 0, 0, 0, 0, 0, 0, 0, 0, 0], [36, 43, 31, 42, 39, 35, 36, 30, 42, 45, 47, 34, 44, 44, 41], [42, 32, 32, 37, 35, 34, 30, 34, 48, 31, 50, 50, 36, 42, 40], [48, 46, 36, 30, 33, 48, 39, 43, 44, 37, 38, 30, 45, 46, 46], [35, 48, 48, 50, 35, 38, 50, 34, 36, 37, 48, 38, 30, 45, 37]], [[0, 0, 0, 0, 0, 0, 0, 0, 0, 0, 0, 0, 0, 0, 0], [0, 0, 0, 0, 0, 0, 0, 0, 0, 0, 0, 0, 0, 0, 0], [0, 0, 0, 0, 0, 0, 0, 0, 0, 0, 0, 0, 0, 0, 0], [0, 0, 0, 0, 0, 0, 0, 0, 0, 0, 0, 0, 0, 0, 0], [42, 49, 32, 48, 38, 33, 31, 41, 30, 49, 37, 49, 50, 47, 43], [34, 32, 50, 31, 40, 42, 41, 41, 38, 32, 32, 41, 49, 39, 33], [48, 49, 33, 41, 41, 36, 41, 50, 39, 42, 49, 50, 45, 38, 34]], [[0, 0, 0, 0, 0, 0, 0, 0, 0, 0, 0, 0, 0, 0, 0], [0, 0, 0, 0, 0, 0, 0, 0, 0, 0, 0, 0, 0, 0, 0], [0, 0, 0, 0, 0, 0, 0, 0, 0, 0, 0, 0, 0, 0, 0], [0, 0, 0, 0, 0, 0, 0, 0, 0, 0, 0, 0, 0, 0, 0], [0, 0, 0, 0, 0, 0, 0, 0, 0, 0, 0, 0, 0, 0, 0], [36, 30, 46, 41, 42, 41, 40, 32, 49, 42, 45, 47, 34, 40, 50], [47, 50, 42, 48, 46, 46, 39, 42, 45, 41, 33, 46, 34, 45, 41]], [[0, 0, 0, 0, 0, 0, 0, 0, 0, 0, 0, 0, 0, 0, 0], [0, 0, 0, 0, 0, 0, 0, 0, 0, 0, 0, 0, 0, 0, 0], [0, 0, 0, 0, 0, 0, 0, 0, 0, 0, 0, 0, 0, 0, 0], [0, 0, 0, 0, 0, 0, 0, 0, 0, 0, 0, 0, 0, 0, 0], [0, 0, 0, 0, 0, 0, 0, 0, 0, 0, 0, 0, 0, 0, 0], [0, 0, 0, 0, 0, 0, 0, 0, 0, 0, 0, 0, 0, 0, 0], [32, 31, 32, 36, 31, 30, 48, 47, 42, 44, 40, 35, 40, 49, 39]], [[0, 0, 0, 0, 0, 0, 0, 0, 0, 0, 0, 0, 0, 0, 0], [0, 0, 0, 0, 0, 0, 0, 0, 0, 0, 0, 0, 0, 0, 0], [0, 0, 0, 0, 0, 0, 0, 0, 0, 0, 0, 0, 0, 0, 0], [0, 0, 0, 0, 0, 0, 0, 0, 0, 0, 0, 0, 0, 0, 0], [0, 0, 0, 0, 0, 0, 0, 0, 0, 0, 0, 0, 0, 0, 0], [0, 0, 0, 0, 0, 0, 0, 0, 0, 0, 0, 0, 0, 0, 0], [0, 0, 0, 0, 0, 0, 0, 0, 0, 0, 0, 0, 0, 0, 0]]];
Q = [[28], [30], [26], [28], [30], [24], [26]];

q = [[[23], [21], [14], [6], [18], [20], [14], [19], [18], [10], [19], [6], [19], [23], [13]], [[17], [13], [20], [7], [22], [22], [25], [14], [20], [25], [7], [14], [23], [16], [16]], [[22], [14], [21], [9], [6], [9], [20], [7], [13], [21], [6], [18], [18], [12], [24]], [[14], [12], [11], [6], [20], [12], [18], [17], [24], [23], [23], [6], [13], [24], [19]], [[13], [9], [14], [13], [22], [18], [23], [19], [14], [7], [21], [9], [24], [24], [25]], [[22], [25], [6], [5], [10], [5], [19], [8], [17], [13], [14], [14], [9], [20], [23]], [[5], [22], [11], [22], [7], [20], [7], [10], [12], [15], [18], [6], [24], [25], [22]]];
p = [0.16, 0.06, 0.73, 0.1, 0.81, 0.57, 0.05, 0.94, 0.47, 0.35, 0.29, 0.3, 0.48, 0.83, 0.69];
